letting initialStacks = [1, 11, 38, 7, 15, 2, 30, 21, 8, 19, 20, 45, 3, 12, 18, 33, 36, 16, 17, 51, 22, 44, 40, 24, 28, 39, 27, 42, 26, 49, 14, 32, 9, 5, 4, 6, 43, 23, 46, 25, 35, 41, 10, 50, 34, 13, 29, 31, 47, 48, 37]
